Route #1: 1 17 27 23 15 29 38 3 1
Route #2: 1 32 10 20 7 4 33 22 12 1
Route #3: 1 9 25 35 18 37 13 30 28 6 1
Route #4: 1 21 16 11 2 14 1
Route #5: 1 36 31 24 19 34 5 1
Route #6: 1 26 8 1
cost 911.352704122015
